(set-option :produce-models true); benchmark generated from python API
(set-info :status unknown)
(declare-fun l_1_0_9 () Real)
(declare-fun l_1_0_8 () Real)
(declare-fun l_1_0_7 () Real)
(declare-fun l_1_0_6 () Real)
(declare-fun l_1_0_5 () Real)
(declare-fun l_1_0_4 () Real)
(declare-fun l_1_0_3 () Real)
(declare-fun l_1_0_2 () Real)
(declare-fun l_1_0_1 () Real)
(declare-fun _a_0_ () Real)
(declare-fun l_1_0_11 () Real)
(declare-fun l_1_0_10 () Real)
(declare-fun _a_1_ () Real)
(declare-fun _a_2_ () Real)
(declare-fun l_1_0_13 () Real)
(declare-fun l_1_0_12 () Real)
(declare-fun _a_3_ () Real)
(declare-fun l_1_0_14 () Real)
(declare-fun _a_4_ () Real)
(declare-fun _a_5_ () Real)
(declare-fun l_1_1_8 () Real)
(declare-fun l_1_1_6 () Real)
(declare-fun l_1_1_5 () Real)
(declare-fun l_1_1_3 () Real)
(declare-fun l_1_1_2 () Real)
(declare-fun l_1_1_15 () Real)
(declare-fun l_1_1_14 () Real)
(declare-fun l_1_1_13 () Real)
(declare-fun l_1_1_11 () Real)
(declare-fun l_1_1_10 () Real)
(declare-fun l_1_1_9 () Real)
(declare-fun l_1_1_7 () Real)
(declare-fun l_1_1_4 () Real)
(declare-fun l_1_1_12 () Real)
(declare-fun l_1_1_1 () Real)
(declare-fun l_1_1_16 () Real)
(declare-fun l_1_1_20 () Real)
(declare-fun l_1_1_19 () Real)
(declare-fun l_1_1_18 () Real)
(declare-fun l_1_1_17 () Real)
(declare-fun l_1_2_9 () Real)
(declare-fun l_1_2_8 () Real)
(declare-fun l_1_2_4 () Real)
(declare-fun l_1_2_3 () Real)
(declare-fun l_1_2_15 () Real)
(declare-fun l_1_2_14 () Real)
(declare-fun l_1_2_13 () Real)
(declare-fun l_1_2_12 () Real)
(declare-fun l_1_2_10 () Real)
(declare-fun l_1_2_1 () Real)
(declare-fun l_1_2_7 () Real)
(declare-fun l_1_2_6 () Real)
(declare-fun l_1_2_5 () Real)
(declare-fun l_1_2_2 () Real)
(declare-fun l_1_2_11 () Real)
(declare-fun l_1_2_19 () Real)
(declare-fun l_1_2_17 () Real)
(declare-fun l_1_2_18 () Real)
(declare-fun l_1_2_16 () Real)
(declare-fun l_1_2_20 () Real)
(assert
 (let ((?x46 (* l_1_0_9 l_1_0_9)))
 (let ((?x49 (* 4.0 l_1_0_6)))
 (let ((?x1583 (* 2.0 l_1_0_4)))
 (let ((?x1584 (* 2.0 l_1_0_3)))
 (let ((?x1582 (- (- (- (- (- _a_0_ (* 2.0 l_1_0_1)) l_1_0_2) ?x1584) ?x1583) l_1_0_5)))
 (= (- (- (- (- ?x1582 ?x49) l_1_0_7) l_1_0_8) ?x46) 0.0)))))))
(assert
 (let ((?x49 (* 4.0 l_1_0_6)))
 (let ((?x1399 (* l_1_0_11 l_1_0_11)))
 (let ((?x1482 (+ (- (- (+ _a_1_ l_1_0_1) (* l_1_0_10 l_1_0_10)) ?x1399) l_1_0_3)))
 (= (+ (+ ?x1482 l_1_0_4) ?x49) 0.0)))))
(assert
 (= (- _a_2_ (* (* 2.0 l_1_0_10) l_1_0_9)) 0.0))
(assert
 (let ((?x564 (- (- _a_3_ (* (* 2.0 l_1_0_10) l_1_0_12)) (* (* 2.0 l_1_0_11) l_1_0_13))))
 (= ?x564 0.0)))
(assert
 (let ((?x49 (* 4.0 l_1_0_6)))
 (let ((?x1351 (* l_1_0_14 l_1_0_14)))
 (let ((?x1348 (* l_1_0_13 l_1_0_13)))
 (let ((?x1263 (+ (- (- (- (+ _a_4_ l_1_0_1) (* l_1_0_12 l_1_0_12)) ?x1348) ?x1351) l_1_0_3)))
 (= (+ (+ ?x1263 l_1_0_4) ?x49) 0.0))))))
(assert
 (= (- _a_5_ (* (* 2.0 l_1_0_12) l_1_0_9)) 0.0))
(assert
 (= (- l_1_0_6) 0.0))
(assert
 (= (* (- 2.0) l_1_0_6) 0.0))
(assert
 (= (- l_1_0_6) 0.0))
(assert
 (>= l_1_0_1 0.0))
(assert
 (>= l_1_0_2 0.0))
(assert
 (>= l_1_0_3 0.0))
(assert
 (>= l_1_0_4 0.0))
(assert
 (>= l_1_0_5 0.0))
(assert
 (>= l_1_0_6 0.0))
(assert
 (>= l_1_0_7 0.0))
(assert
 (>= l_1_0_8 0.0))
(assert
 (>= l_1_0_9 0.0))
(assert
 (>= l_1_0_11 0.0))
(assert
 (>= l_1_0_14 0.0))
(assert
 (let ((?x1155 (* 9.0 l_1_1_8)))
 (let ((?x1153 (* 3.0 l_1_1_6)))
 (let ((?x1187 (* 3.0 l_1_1_5)))
 (let ((?x1181 (* l_1_1_15 l_1_1_15)))
 (let ((?x1178 (* 3.0 l_1_1_13)))
 (let ((?x1174 (* _a_0_ l_1_1_9)))
 (let ((?x1079 (* _a_0_ l_1_1_4)))
 (let ((?x1171 (- (+ (* (- _a_0_) l_1_1_1) (* (* 3.0 _a_0_) l_1_1_12)) ?x1079)))
 (let ((?x1177 (- (- (- (+ ?x1171 (* (* 3.0 _a_0_) l_1_1_7)) ?x1174) l_1_1_10) l_1_1_11)))
 (let ((?x1185 (- (- (- (+ ?x1177 ?x1178) l_1_1_14) ?x1181) (* (* l_1_1_2 _a_0_) _a_0_))))
 (= (+ (- (+ (+ (- ?x1185 l_1_1_3) ?x1187) ?x1153) ?x1155) (/ 121.0 100.0)) 0.0))))))))))))
(assert
 (let ((?x40 (* _a_2_ l_1_1_9)))
 (let ((?x942 (* _a_2_ l_1_1_4)))
 (let ((?x937 (* _a_2_ l_1_1_1)))
 (let ((?x941 (+ (- (* (* (* (- 2.0) _a_0_) _a_2_) l_1_1_2) ?x937) (* (* 3.0 _a_2_) l_1_1_12))))
 (let ((?x35 (- (- (+ (- ?x941 ?x942) (* (* 3.0 _a_2_) l_1_1_7)) ?x40) (* (* 2.0 l_1_1_15) l_1_1_16))))
 (= (+ ?x35 1.0) 0.0)))))))
(assert
 (let ((?x777 (* 6.0 l_1_1_8)))
 (let ((?x679 (* l_1_1_20 l_1_1_20)))
 (let ((?x493 (* l_1_1_19 l_1_1_19)))
 (let ((?x487 (* l_1_1_18 l_1_1_18)))
 (let ((?x871 (* _a_4_ l_1_1_9)))
 (let ((?x830 (- (- (- (* (- _a_4_) l_1_1_1) (* _a_4_ l_1_1_4)) ?x871) (* l_1_1_12 (- _a_0_ (* 3.0 _a_4_))))))
 (let ((?x833 (- (- (- (- ?x830 l_1_1_13) ?x487) ?x493) (* l_1_1_2 (+ (* (* 2.0 _a_0_) _a_4_) (* _a_5_ _a_5_))))))
 (let ((?x599 (- (- (- (- ?x833 ?x679) l_1_1_5) l_1_1_6) (* l_1_1_7 (- _a_0_ (* 3.0 _a_4_))))))
 (= (- (+ ?x599 ?x777) (/ 1.0 5.0)) 0.0))))))))))
(assert
 (let ((?x777 (* 6.0 l_1_1_8)))
 (let ((?x420 (* l_1_1_17 l_1_1_17)))
 (let ((?x418 (* l_1_1_16 l_1_1_16)))
 (let ((?x411 (* _a_1_ l_1_1_9)))
 (let ((?x417 (- (- (- (* (- _a_1_) l_1_1_1) (* _a_1_ l_1_1_4)) ?x411) (* l_1_1_12 (- _a_0_ (* 3.0 _a_1_))))))
 (let ((?x352 (- (- (- (- ?x417 l_1_1_13) ?x418) ?x420) (* l_1_1_2 (+ (* (* 2.0 _a_0_) _a_1_) (* _a_2_ _a_2_))))))
 (let ((?x358 (- (- (- ?x352 l_1_1_5) l_1_1_6) (* l_1_1_7 (- _a_0_ (* 3.0 _a_1_))))))
 (= (+ ?x358 ?x777) 0.0)))))))))
(assert
 (let ((?x203 (+ (* (* 2.0 _a_0_) _a_3_) (* (* 2.0 _a_2_) _a_5_))))
 (let ((?x192 (* _a_3_ l_1_1_9)))
 (let ((?x189 (* _a_3_ l_1_1_4)))
 (let ((?x190 (- (+ (* (- _a_3_) l_1_1_1) (* (* 3.0 _a_3_) l_1_1_12)) ?x189)))
 (let ((?x196 (- (- (+ ?x190 (* (* 3.0 _a_3_) l_1_1_7)) ?x192) (* (* 2.0 l_1_1_16) l_1_1_18))))
 (= (- (- ?x196 (* (* 2.0 l_1_1_17) l_1_1_19)) (* l_1_1_2 ?x203)) 0.0)))))))
(assert
 (let ((?x857 (* _a_5_ l_1_1_9)))
 (let ((?x1355 (* _a_5_ l_1_1_4)))
 (let ((?x1358 (* _a_5_ l_1_1_1)))
 (let ((?x1352 (+ (- (* (* (* (- 2.0) _a_0_) _a_5_) l_1_1_2) ?x1358) (* (* 3.0 _a_5_) l_1_1_12))))
 (let ((?x224 (- (- (+ (- ?x1352 ?x1355) (* (* 3.0 _a_5_) l_1_1_7)) ?x857) (* (* 2.0 l_1_1_15) l_1_1_18))))
 (= ?x224 0.0)))))))
(assert
 (let ((?x1294 (- (- (* (- _a_1_) l_1_1_12) (* _a_1_ l_1_1_7)) (* (* l_1_1_2 _a_1_) _a_1_))))
 (= (- ?x1294 l_1_1_8) 0.0)))
(assert
 (let ((?x918 (* _a_2_ l_1_1_7)))
 (let ((?x921 (* _a_2_ l_1_1_12)))
 (= (- (- (* (* (* (- 2.0) _a_1_) _a_2_) l_1_1_2) ?x921) ?x918) 0.0))))
(assert
 (let ((?x161 (* _a_3_ l_1_1_7)))
 (let ((?x155 (* _a_3_ l_1_1_12)))
 (= (- (- (* (* (* (- 2.0) _a_1_) _a_3_) l_1_1_2) ?x155) ?x161) 0.0))))
(assert
 (let ((?x1248 (* 2.0 l_1_1_8)))
 (let ((?x1247 (- (* (- l_1_1_12) (+ _a_1_ _a_4_)) (* l_1_1_2 (+ (* (* 2.0 _a_1_) _a_4_) (* _a_3_ _a_3_))))))
 (= (- (- ?x1247 (* l_1_1_7 (+ _a_1_ _a_4_))) ?x1248) 0.0))))
(assert
 (let ((?x543 (+ (* (* 2.0 _a_1_) _a_5_) (* (* 2.0 _a_2_) _a_3_))))
 (let ((?x1498 (- (- (* (- _a_5_) l_1_1_12) (* _a_5_ l_1_1_7)) (* l_1_1_2 ?x543))))
 (= ?x1498 0.0))))
(assert
 (let ((?x697 (+ (* (* 2.0 _a_2_) _a_4_) (* (* 2.0 _a_3_) _a_5_))))
 (let ((?x634 (- (- (* (- _a_2_) l_1_1_12) (* _a_2_ l_1_1_7)) (* l_1_1_2 ?x697))))
 (= ?x634 0.0))))
(assert
 (let ((?x161 (* _a_3_ l_1_1_7)))
 (let ((?x155 (* _a_3_ l_1_1_12)))
 (= (- (- (* (* (* (- 2.0) _a_3_) _a_4_) l_1_1_2) ?x155) ?x161) 0.0))))
(assert
 (let ((?x787 (- (- (* (- _a_4_) l_1_1_12) (* _a_4_ l_1_1_7)) (* (* l_1_1_2 _a_4_) _a_4_))))
 (= (- ?x787 l_1_1_8) 0.0)))
(assert
 (let ((?x957 (* _a_5_ l_1_1_7)))
 (let ((?x952 (* _a_5_ l_1_1_12)))
 (= (- (- (* (* (* (- 2.0) _a_4_) _a_5_) l_1_1_2) ?x952) ?x957) 0.0))))
(assert
 (>= l_1_1_1 0.0))
(assert
 (>= l_1_1_2 0.0))
(assert
 (>= l_1_1_3 0.0))
(assert
 (>= l_1_1_4 0.0))
(assert
 (>= l_1_1_5 0.0))
(assert
 (>= l_1_1_6 0.0))
(assert
 (>= l_1_1_7 0.0))
(assert
 (>= l_1_1_8 0.0))
(assert
 (>= l_1_1_9 0.0))
(assert
 (>= l_1_1_10 0.0))
(assert
 (>= l_1_1_11 0.0))
(assert
 (>= l_1_1_12 0.0))
(assert
 (>= l_1_1_13 0.0))
(assert
 (>= l_1_1_14 0.0))
(assert
 (>= l_1_1_15 0.0))
(assert
 (>= l_1_1_17 0.0))
(assert
 (>= l_1_1_20 0.0))
(assert
 (let ((?x839 (* 9.0 l_1_2_8)))
 (let ((?x1402 (* l_1_2_15 l_1_2_15)))
 (let ((?x792 (* 3.0 l_1_2_13)))
 (let ((?x790 (* 3.0 l_1_2_12)))
 (let ((?x245 (* 3.0 l_1_2_1)))
 (let ((?x238 (* 1.0 _a_3_)))
 (let ((?x1062 (* _a_0_ l_1_2_6)))
 (let ((?x1055 (* _a_0_ l_1_2_5)))
 (let ((?x1067 (- (- (- (* (* (- 3.0) _a_0_) l_1_2_11) (* _a_0_ l_1_2_2)) ?x1055) ?x1062)))
 (let ((?x1064 (+ (+ (- ?x1067 (* (* 3.0 _a_0_) l_1_2_7)) _a_0_) (* 1.0 _a_1_))))
 (let ((?x243 (- (+ (- (+ ?x1064 (* 1.0 _a_2_)) ?x238) (* 1.0 _a_4_)) (* 1.0 _a_5_))))
 (let ((?x793 (- (- (- (- ?x243 ?x245) (* (* l_1_2_10 _a_0_) _a_0_)) ?x790) ?x792)))
 (let ((?x841 (- (- (- (- (- (- ?x793 l_1_2_14) ?x1402) l_1_2_3) l_1_2_4) ?x839) l_1_2_9)))
 (= ?x841 0.0)))))))))))))))
(assert
 (let ((?x1302 (* 2.0 l_1_2_8)))
 (let ((?x1323 (* 4.0 _a_1_)))
 (let ((?x1324 (+ ?x1323 _a_3_)))
 (let ((?x1123 (- ?x1324 (* l_1_2_10 (+ (* (* 2.0 _a_1_) _a_4_) (* _a_3_ _a_3_))))))
 (let ((?x1301 (- (- ?x1123 (* l_1_2_11 (- (- _a_1_) _a_4_))) (* l_1_2_7 (- (- _a_1_) _a_4_)))))
 (= (- ?x1301 ?x1302) 0.0)))))))
(assert
 (let ((?x627 (* _a_3_ l_1_2_7)))
 (let ((?x1330 (* _a_3_ l_1_2_11)))
 (let ((?x1329 (+ (+ (* (* (* (- 2.0) _a_1_) _a_3_) l_1_2_10) (* 4.0 _a_1_)) ?x1330)))
 (= (+ ?x1329 ?x627) 0.0)))))
(assert
 (let ((?x203 (+ (* (* 2.0 _a_0_) _a_3_) (* (* 2.0 _a_2_) _a_5_))))
 (let ((?x696 (* 2.0 _a_3_)))
 (let ((?x327 (* _a_3_ l_1_2_6)))
 (let ((?x324 (* _a_3_ l_1_2_5)))
 (let ((?x322 (* _a_3_ l_1_2_2)))
 (let ((?x201 (* 2.0 _a_2_)))
 (let ((?x1323 (* 4.0 _a_1_)))
 (let ((?x768 (+ ?x1323 ?x201)))
 (let ((?x326 (- (- (- (- ?x768 (* (* 3.0 _a_3_) l_1_2_11)) ?x322) ?x324) ?x327)))
 (let ((?x853 (- (- (- ?x326 (* (* 3.0 _a_3_) l_1_2_7)) ?x696) (* l_1_2_10 ?x203))))
 (let ((?x1571 (- (- ?x853 (* (* 2.0 l_1_2_16) l_1_2_18)) (* (* 2.0 l_1_2_17) l_1_2_19))))
 (= ?x1571 0.0)))))))))))))
(assert
 (let ((?x1415 (- (+ (+ (* _a_1_ l_1_2_11) (* _a_1_ l_1_2_7)) _a_1_) (* (* l_1_2_10 _a_1_) _a_1_))))
 (= (- ?x1415 l_1_2_8) 0.0)))
(assert
 (let ((?x1208 (* 6.0 l_1_2_8)))
 (let ((?x534 (* l_1_2_17 l_1_2_17)))
 (let ((?x764 (* l_1_2_16 l_1_2_16)))
 (let ((?x238 (* 1.0 _a_3_)))
 (let ((?x430 (* 2.0 _a_1_)))
 (let ((?x1504 (* _a_1_ l_1_2_6)))
 (let ((?x1506 (+ (- (- (* (- _a_1_) l_1_2_2) (* _a_1_ l_1_2_5)) ?x1504) ?x430)))
 (let ((?x139 (- (+ (+ (- (+ ?x1506 _a_2_) ?x238) _a_4_) l_1_2_1) (* l_1_2_10 (+ (* (* 2.0 _a_0_) _a_1_) (* _a_2_ _a_2_))))))
 (let ((?x228 (+ (- ?x139 (* l_1_2_11 (+ (- _a_0_) (* 3.0 _a_1_)))) l_1_2_12)))
 (let ((?x1246 (- (- (- (+ ?x228 l_1_2_13) ?x764) ?x534) (* l_1_2_7 (+ (- _a_0_) (* 3.0 _a_1_))))))
 (= (+ ?x1246 ?x1208) 0.0))))))))))))
(assert
 (let ((?x696 (* 2.0 _a_3_)))
 (let ((?x627 (* _a_3_ l_1_2_7)))
 (let ((?x1330 (* _a_3_ l_1_2_11)))
 (let ((?x1492 (+ (+ (+ (* (* (* (- 2.0) _a_3_) _a_4_) l_1_2_10) ?x1330) ?x627) ?x696)))
 (= ?x1492 0.0))))))
(assert
 (let ((?x1208 (* 6.0 l_1_2_8)))
 (let ((?x1118 (* l_1_2_20 l_1_2_20)))
 (let ((?x1132 (* l_1_2_19 l_1_2_19)))
 (let ((?x1130 (* l_1_2_18 l_1_2_18)))
 (let ((?x804 (* 2.0 _a_4_)))
 (let ((?x330 (* _a_4_ l_1_2_6)))
 (let ((?x333 (* _a_4_ l_1_2_5)))
 (let ((?x802 (- (- (- (- (* 1.0 _a_3_) (* _a_4_ l_1_2_2)) ?x333) ?x330) ?x804)))
 (let ((?x738 (- (+ (+ ?x802 _a_5_) l_1_2_1) (* l_1_2_10 (+ (* (* 2.0 _a_0_) _a_4_) (* _a_5_ _a_5_))))))
 (let ((?x422 (+ (- ?x738 (* l_1_2_11 (+ (- _a_0_) (* 3.0 _a_4_)))) l_1_2_12)))
 (let ((?x1404 (- (- (- (- (+ ?x422 l_1_2_13) ?x1130) ?x1132) ?x1118) (* l_1_2_7 (+ (- _a_0_) (* 3.0 _a_4_))))))
 (= (+ ?x1404 ?x1208) 0.0)))))))))))))
(assert
 (let ((?x543 (+ (* (* 2.0 _a_1_) _a_5_) (* (* 2.0 _a_2_) _a_3_))))
 (let ((?x620 (* _a_5_ l_1_2_7)))
 (let ((?x388 (- (+ (+ (* 2.0 _a_3_) (* _a_5_ l_1_2_11)) ?x620) (* l_1_2_10 ?x543))))
 (= ?x388 0.0)))))
(assert
 (let ((?x297 (* _a_2_ l_1_2_7)))
 (let ((?x892 (* _a_2_ l_1_2_11)))
 (let ((?x300 (+ (+ (+ (* (* (* (- 2.0) _a_1_) _a_2_) l_1_2_10) ?x892) ?x297) _a_3_)))
 (= ?x300 0.0)))))
(assert
 (let ((?x804 (* 2.0 _a_4_)))
 (let ((?x238 (* 1.0 _a_3_)))
 (let ((?x1549 (* _a_2_ l_1_2_6)))
 (let ((?x1575 (* _a_2_ l_1_2_5)))
 (let ((?x709 (* _a_2_ l_1_2_2)))
 (let ((?x1242 (- (* (* (* (- 2.0) _a_0_) _a_2_) l_1_2_10) (* (* 3.0 _a_2_) l_1_2_11))))
 (let ((?x1521 (- (- (- (- ?x1242 ?x709) ?x1575) ?x1549) (* (* 3.0 _a_2_) l_1_2_7))))
 (let ((?x1420 (- (+ (- (+ ?x1521 ?x238) ?x804) _a_5_) (* (* 2.0 l_1_2_15) l_1_2_16))))
 (= ?x1420 0.0))))))))))
(assert
 (let ((?x563 (- (+ (+ (* _a_4_ l_1_2_11) (* _a_4_ l_1_2_7)) _a_4_) (* (* l_1_2_10 _a_4_) _a_4_))))
 (= (- ?x563 l_1_2_8) 0.0)))
(assert
 (let ((?x697 (+ (* (* 2.0 _a_2_) _a_4_) (* (* 2.0 _a_3_) _a_5_))))
 (let ((?x804 (* 2.0 _a_4_)))
 (let ((?x338 (- (+ (+ (* _a_2_ l_1_2_11) (* _a_2_ l_1_2_7)) ?x804) (* l_1_2_10 ?x697))))
 (= ?x338 0.0)))))
(assert
 (let ((?x76 (* _a_5_ l_1_2_6)))
 (let ((?x79 (* _a_5_ l_1_2_5)))
 (let ((?x81 (* _a_5_ l_1_2_2)))
 (let ((?x82 (- (* (* (* (- 2.0) _a_0_) _a_5_) l_1_2_10) (* (* 3.0 _a_5_) l_1_2_11))))
 (let ((?x72 (- (- (- (- ?x82 ?x81) ?x79) ?x76) (* (* 3.0 _a_5_) l_1_2_7))))
 (= (- ?x72 (* (* 2.0 l_1_2_15) l_1_2_18)) 0.0)))))))
(assert
 (let ((?x620 (* _a_5_ l_1_2_7)))
 (let ((?x1074 (* _a_5_ l_1_2_11)))
 (= (+ (+ (* (* (* (- 2.0) _a_4_) _a_5_) l_1_2_10) ?x1074) ?x620) 0.0))))
(assert
 (>= l_1_2_1 0.0))
(assert
 (>= l_1_2_2 0.0))
(assert
 (>= l_1_2_3 0.0))
(assert
 (>= l_1_2_4 0.0))
(assert
 (>= l_1_2_5 0.0))
(assert
 (>= l_1_2_6 0.0))
(assert
 (>= l_1_2_7 0.0))
(assert
 (>= l_1_2_8 0.0))
(assert
 (>= l_1_2_9 0.0))
(assert
 (>= l_1_2_10 0.0))
(assert
 (>= l_1_2_11 0.0))
(assert
 (>= l_1_2_12 0.0))
(assert
 (>= l_1_2_13 0.0))
(assert
 (>= l_1_2_14 0.0))
(assert
 (>= l_1_2_15 0.0))
(assert
 (>= l_1_2_17 0.0))
(assert
 (>= l_1_2_20 0.0))
(check-sat)
(get-model)